p td 20 40
3 15
3 17
3 6
3 2
15 19
15 9
15 13
8 13
8 2
8 5
8 7
13 5
13 1
10 17
10 6
10 1
10 19
17 6
17 7
2 18
2 14
18 19
18 11
18 16
0 14
0 7
0 4
0 19
14 1
14 4
5 12
5 11
7 9
4 12
4 16
12 6
12 11
9 11
9 16
1 16
